5 6 47
3 3 1 1 1 4 2 4 15 18 24 32 46 
4 3 2 3 3 5 1 5 2 20 25 25 34 36 40 40 47 
3 2 1 2 2 2 3 8 24 24 30 30 44 
3 4 1 1 2 1 3 16 22 26 36 36 45 
6 2 1 1 1 1 1 3 2 4 2 4 2 0 8 8 14 14 18 18 20 20 24 24 32 
7 3 1 4 1 4 1 1 2 1 2 5 1 5 1 0 4 4 10 10 16 16 24 24 26 26 30 30 36 
